; Benchmark for LTL-sketching problem
(set-logic QF_UF)
(set-info :status unknown)
(declare-fun z_0_0_0 () Bool)
(declare-fun z_0_1_0 () Bool)
(declare-fun z_0_2_0 () Bool)
(declare-fun z_0_3_0 () Bool)
(declare-fun z_0_4_0 () Bool)
(declare-fun z_0_5_0 () Bool)
(declare-fun z_0_6_0 () Bool)
(declare-fun z_0_7_0 () Bool)
(declare-fun z_0_8_0 () Bool)
(declare-fun z_0_9_0 () Bool)
(declare-fun z_0_10_0 () Bool)
(declare-fun z_0_11_0 () Bool)
(declare-fun z_0_12_0 () Bool)
(declare-fun z_0_13_0 () Bool)
(declare-fun z_0_14_0 () Bool)
(declare-fun z_0_15_0 () Bool)
(declare-fun z_0_16_0 () Bool)
(declare-fun z_0_17_0 () Bool)
(declare-fun z_0_18_0 () Bool)
(declare-fun z_0_19_0 () Bool)
(declare-fun z_2_0_0 () Bool)
(declare-fun z_2_1_0 () Bool)
(declare-fun z_2_2_0 () Bool)
(declare-fun z_2_3_0 () Bool)
(declare-fun z_2_4_0 () Bool)
(declare-fun z_2_5_0 () Bool)
(declare-fun z_2_6_0 () Bool)
(declare-fun z_2_7_0 () Bool)
(declare-fun z_2_8_0 () Bool)
(declare-fun z_2_9_0 () Bool)
(declare-fun z_0_10_1 () Bool)
(declare-fun z_2_10_0 () Bool)
(declare-fun z_0_10_2 () Bool)
(declare-fun z_2_10_1 () Bool)
(declare-fun z_0_10_3 () Bool)
(declare-fun z_2_10_2 () Bool)
(declare-fun z_0_10_4 () Bool)
(declare-fun z_2_10_3 () Bool)
(declare-fun z_0_10_5 () Bool)
(declare-fun z_2_10_4 () Bool)
(declare-fun z_0_10_6 () Bool)
(declare-fun z_2_10_5 () Bool)
(declare-fun z_0_10_7 () Bool)
(declare-fun z_2_10_6 () Bool)
(declare-fun z_0_10_8 () Bool)
(declare-fun z_2_10_7 () Bool)
(declare-fun z_0_10_9 () Bool)
(declare-fun z_2_10_8 () Bool)
(declare-fun z_0_10_10 () Bool)
(declare-fun z_2_10_9 () Bool)
(declare-fun z_0_10_11 () Bool)
(declare-fun z_2_10_10 () Bool)
(declare-fun z_2_10_11 () Bool)
(declare-fun z_0_11_1 () Bool)
(declare-fun z_2_11_0 () Bool)
(declare-fun z_0_11_2 () Bool)
(declare-fun z_2_11_1 () Bool)
(declare-fun z_0_11_3 () Bool)
(declare-fun z_2_11_2 () Bool)
(declare-fun z_0_11_4 () Bool)
(declare-fun z_2_11_3 () Bool)
(declare-fun z_0_11_5 () Bool)
(declare-fun z_2_11_4 () Bool)
(declare-fun z_0_11_6 () Bool)
(declare-fun z_2_11_5 () Bool)
(declare-fun z_0_11_7 () Bool)
(declare-fun z_2_11_6 () Bool)
(declare-fun z_0_11_8 () Bool)
(declare-fun z_2_11_7 () Bool)
(declare-fun z_0_11_9 () Bool)
(declare-fun z_2_11_8 () Bool)
(declare-fun z_0_11_10 () Bool)
(declare-fun z_2_11_9 () Bool)
(declare-fun z_0_11_11 () Bool)
(declare-fun z_2_11_10 () Bool)
(declare-fun z_2_11_11 () Bool)
(declare-fun z_0_12_1 () Bool)
(declare-fun z_2_12_0 () Bool)
(declare-fun z_0_12_2 () Bool)
(declare-fun z_2_12_1 () Bool)
(declare-fun z_0_12_3 () Bool)
(declare-fun z_2_12_2 () Bool)
(declare-fun z_0_12_4 () Bool)
(declare-fun z_2_12_3 () Bool)
(declare-fun z_0_12_5 () Bool)
(declare-fun z_2_12_4 () Bool)
(declare-fun z_0_12_6 () Bool)
(declare-fun z_2_12_5 () Bool)
(declare-fun z_0_12_7 () Bool)
(declare-fun z_2_12_6 () Bool)
(declare-fun z_0_12_8 () Bool)
(declare-fun z_2_12_7 () Bool)
(declare-fun z_0_12_9 () Bool)
(declare-fun z_2_12_8 () Bool)
(declare-fun z_0_12_10 () Bool)
(declare-fun z_2_12_9 () Bool)
(declare-fun z_0_12_11 () Bool)
(declare-fun z_2_12_10 () Bool)
(declare-fun z_2_12_11 () Bool)
(declare-fun z_0_13_1 () Bool)
(declare-fun z_2_13_0 () Bool)
(declare-fun z_0_13_2 () Bool)
(declare-fun z_2_13_1 () Bool)
(declare-fun z_0_13_3 () Bool)
(declare-fun z_2_13_2 () Bool)
(declare-fun z_0_13_4 () Bool)
(declare-fun z_2_13_3 () Bool)
(declare-fun z_0_13_5 () Bool)
(declare-fun z_2_13_4 () Bool)
(declare-fun z_0_13_6 () Bool)
(declare-fun z_2_13_5 () Bool)
(declare-fun z_0_13_7 () Bool)
(declare-fun z_2_13_6 () Bool)
(declare-fun z_0_13_8 () Bool)
(declare-fun z_2_13_7 () Bool)
(declare-fun z_0_13_9 () Bool)
(declare-fun z_2_13_8 () Bool)
(declare-fun z_0_13_10 () Bool)
(declare-fun z_2_13_9 () Bool)
(declare-fun z_0_13_11 () Bool)
(declare-fun z_2_13_10 () Bool)
(declare-fun z_0_13_12 () Bool)
(declare-fun z_2_13_11 () Bool)
(declare-fun z_2_13_12 () Bool)
(declare-fun z_0_14_1 () Bool)
(declare-fun z_2_14_0 () Bool)
(declare-fun z_0_14_2 () Bool)
(declare-fun z_2_14_1 () Bool)
(declare-fun z_0_14_3 () Bool)
(declare-fun z_2_14_2 () Bool)
(declare-fun z_0_14_4 () Bool)
(declare-fun z_2_14_3 () Bool)
(declare-fun z_0_14_5 () Bool)
(declare-fun z_2_14_4 () Bool)
(declare-fun z_0_14_6 () Bool)
(declare-fun z_2_14_5 () Bool)
(declare-fun z_0_14_7 () Bool)
(declare-fun z_2_14_6 () Bool)
(declare-fun z_0_14_8 () Bool)
(declare-fun z_2_14_7 () Bool)
(declare-fun z_0_14_9 () Bool)
(declare-fun z_2_14_8 () Bool)
(declare-fun z_0_14_10 () Bool)
(declare-fun z_2_14_9 () Bool)
(declare-fun z_0_14_11 () Bool)
(declare-fun z_2_14_10 () Bool)
(declare-fun z_0_14_12 () Bool)
(declare-fun z_2_14_11 () Bool)
(declare-fun z_0_14_13 () Bool)
(declare-fun z_2_14_12 () Bool)
(declare-fun z_2_14_13 () Bool)
(declare-fun z_0_15_1 () Bool)
(declare-fun z_2_15_0 () Bool)
(declare-fun z_0_15_2 () Bool)
(declare-fun z_2_15_1 () Bool)
(declare-fun z_0_15_3 () Bool)
(declare-fun z_2_15_2 () Bool)
(declare-fun z_0_15_4 () Bool)
(declare-fun z_2_15_3 () Bool)
(declare-fun z_0_15_5 () Bool)
(declare-fun z_2_15_4 () Bool)
(declare-fun z_0_15_6 () Bool)
(declare-fun z_2_15_5 () Bool)
(declare-fun z_0_15_7 () Bool)
(declare-fun z_2_15_6 () Bool)
(declare-fun z_0_15_8 () Bool)
(declare-fun z_2_15_7 () Bool)
(declare-fun z_0_15_9 () Bool)
(declare-fun z_2_15_8 () Bool)
(declare-fun z_0_15_10 () Bool)
(declare-fun z_2_15_9 () Bool)
(declare-fun z_0_15_11 () Bool)
(declare-fun z_2_15_10 () Bool)
(declare-fun z_0_15_12 () Bool)
(declare-fun z_2_15_11 () Bool)
(declare-fun z_0_15_13 () Bool)
(declare-fun z_2_15_12 () Bool)
(declare-fun z_2_15_13 () Bool)
(declare-fun z_0_16_1 () Bool)
(declare-fun z_2_16_0 () Bool)
(declare-fun z_0_16_2 () Bool)
(declare-fun z_2_16_1 () Bool)
(declare-fun z_0_16_3 () Bool)
(declare-fun z_2_16_2 () Bool)
(declare-fun z_0_16_4 () Bool)
(declare-fun z_2_16_3 () Bool)
(declare-fun z_0_16_5 () Bool)
(declare-fun z_2_16_4 () Bool)
(declare-fun z_0_16_6 () Bool)
(declare-fun z_2_16_5 () Bool)
(declare-fun z_0_16_7 () Bool)
(declare-fun z_2_16_6 () Bool)
(declare-fun z_0_16_8 () Bool)
(declare-fun z_2_16_7 () Bool)
(declare-fun z_0_16_9 () Bool)
(declare-fun z_2_16_8 () Bool)
(declare-fun z_0_16_10 () Bool)
(declare-fun z_2_16_9 () Bool)
(declare-fun z_0_16_11 () Bool)
(declare-fun z_2_16_10 () Bool)
(declare-fun z_0_16_12 () Bool)
(declare-fun z_2_16_11 () Bool)
(declare-fun z_2_16_12 () Bool)
(declare-fun z_0_17_1 () Bool)
(declare-fun z_2_17_0 () Bool)
(declare-fun z_0_17_2 () Bool)
(declare-fun z_2_17_1 () Bool)
(declare-fun z_0_17_3 () Bool)
(declare-fun z_2_17_2 () Bool)
(declare-fun z_0_17_4 () Bool)
(declare-fun z_2_17_3 () Bool)
(declare-fun z_0_17_5 () Bool)
(declare-fun z_2_17_4 () Bool)
(declare-fun z_0_17_6 () Bool)
(declare-fun z_2_17_5 () Bool)
(declare-fun z_0_17_7 () Bool)
(declare-fun z_2_17_6 () Bool)
(declare-fun z_0_17_8 () Bool)
(declare-fun z_2_17_7 () Bool)
(declare-fun z_0_17_9 () Bool)
(declare-fun z_2_17_8 () Bool)
(declare-fun z_0_17_10 () Bool)
(declare-fun z_2_17_9 () Bool)
(declare-fun z_0_17_11 () Bool)
(declare-fun z_2_17_10 () Bool)
(declare-fun z_0_17_12 () Bool)
(declare-fun z_2_17_11 () Bool)
(declare-fun z_0_17_13 () Bool)
(declare-fun z_2_17_12 () Bool)
(declare-fun z_0_17_14 () Bool)
(declare-fun z_2_17_13 () Bool)
(declare-fun z_2_17_14 () Bool)
(declare-fun z_0_18_1 () Bool)
(declare-fun z_2_18_0 () Bool)
(declare-fun z_0_18_2 () Bool)
(declare-fun z_2_18_1 () Bool)
(declare-fun z_0_18_3 () Bool)
(declare-fun z_2_18_2 () Bool)
(declare-fun z_0_18_4 () Bool)
(declare-fun z_2_18_3 () Bool)
(declare-fun z_0_18_5 () Bool)
(declare-fun z_2_18_4 () Bool)
(declare-fun z_0_18_6 () Bool)
(declare-fun z_2_18_5 () Bool)
(declare-fun z_0_18_7 () Bool)
(declare-fun z_2_18_6 () Bool)
(declare-fun z_0_18_8 () Bool)
(declare-fun z_2_18_7 () Bool)
(declare-fun z_0_18_9 () Bool)
(declare-fun z_2_18_8 () Bool)
(declare-fun z_0_18_10 () Bool)
(declare-fun z_2_18_9 () Bool)
(declare-fun z_0_18_11 () Bool)
(declare-fun z_2_18_10 () Bool)
(declare-fun z_2_18_11 () Bool)
(declare-fun z_0_19_1 () Bool)
(declare-fun z_2_19_0 () Bool)
(declare-fun z_0_19_2 () Bool)
(declare-fun z_2_19_1 () Bool)
(declare-fun z_0_19_3 () Bool)
(declare-fun z_2_19_2 () Bool)
(declare-fun z_0_19_4 () Bool)
(declare-fun z_2_19_3 () Bool)
(declare-fun z_0_19_5 () Bool)
(declare-fun z_2_19_4 () Bool)
(declare-fun z_0_19_6 () Bool)
(declare-fun z_2_19_5 () Bool)
(declare-fun z_0_19_7 () Bool)
(declare-fun z_2_19_6 () Bool)
(declare-fun z_0_19_8 () Bool)
(declare-fun z_2_19_7 () Bool)
(declare-fun z_0_19_9 () Bool)
(declare-fun z_2_19_8 () Bool)
(declare-fun z_0_19_10 () Bool)
(declare-fun z_2_19_9 () Bool)
(declare-fun z_0_19_11 () Bool)
(declare-fun z_2_19_10 () Bool)
(declare-fun z_0_19_12 () Bool)
(declare-fun z_2_19_11 () Bool)
(declare-fun z_0_19_13 () Bool)
(declare-fun z_2_19_12 () Bool)
(declare-fun z_0_19_14 () Bool)
(declare-fun z_2_19_13 () Bool)
(declare-fun z_2_19_14 () Bool)
(declare-fun x_2_p () Bool)
(declare-fun x_2_-> () Bool)
(declare-fun x_2_U () Bool)
(declare-fun x_2_v () Bool)
(declare-fun x_2_& () Bool)
(declare-fun x_2_X () Bool)
(declare-fun x_2_! () Bool)
(declare-fun x_2_F () Bool)
(declare-fun x_2_G () Bool)
(assert
 (= z_0_0_0 true))
(assert
 (= z_0_1_0 true))
(assert
 (= z_0_2_0 true))
(assert
 (= z_0_3_0 true))
(assert
 (= z_0_4_0 true))
(assert
 (= z_0_5_0 true))
(assert
 (= z_0_6_0 true))
(assert
 (= z_0_7_0 true))
(assert
 (= z_0_8_0 true))
(assert
 (= z_0_9_0 true))
(assert
 (= z_0_10_0 false))
(assert
 (= z_0_11_0 false))
(assert
 (= z_0_12_0 false))
(assert
 (= z_0_13_0 false))
(assert
 (= z_0_14_0 false))
(assert
 (= z_0_15_0 false))
(assert
 (= z_0_16_0 false))
(assert
 (= z_0_17_0 false))
(assert
 (= z_0_18_0 false))
(assert
 (= z_0_19_0 false))
(assert
 (= z_0_0_0 (and z_2_0_0)))
(assert
 (= z_0_1_0 (and z_2_1_0)))
(assert
 (= z_0_2_0 (and z_2_2_0)))
(assert
 (= z_0_3_0 (and z_2_3_0)))
(assert
 (= z_0_4_0 (and z_2_4_0)))
(assert
 (= z_0_5_0 (and z_2_5_0)))
(assert
 (= z_0_6_0 (and z_2_6_0)))
(assert
 (= z_0_7_0 (and z_2_7_0)))
(assert
 (= z_0_8_0 (and z_2_8_0)))
(assert
 (= z_0_9_0 (and z_2_9_0)))
(assert
 (= z_0_10_0 (and z_2_10_0 z_0_10_1)))
(assert
 (= z_0_10_1 (and z_2_10_1 z_0_10_2)))
(assert
 (= z_0_10_2 (and z_2_10_2 z_0_10_3)))
(assert
 (= z_0_10_3 (and z_2_10_3 z_0_10_4)))
(assert
 (= z_0_10_4 (and z_2_10_4 z_0_10_5)))
(assert
 (= z_0_10_5 (and z_2_10_5 z_0_10_6)))
(assert
 (= z_0_10_6 (and z_2_10_6 z_0_10_7)))
(assert
 (= z_0_10_7 (and z_2_10_7 z_0_10_8)))
(assert
 (= z_0_10_8 (and z_2_10_8 z_0_10_9)))
(assert
 (= z_0_10_9 (and z_2_10_9 z_0_10_10)))
(assert
 (= z_0_10_10 (and z_2_10_10 z_0_10_11)))
(assert
 (let (($x3136 (and z_2_10_5 z_2_10_6 z_2_10_7 z_2_10_8 z_2_10_9 z_2_10_10 z_2_10_11)))
 (= z_0_10_11 $x3136)))
(assert
 (= z_0_11_0 (and z_2_11_0 z_0_11_1)))
(assert
 (= z_0_11_1 (and z_2_11_1 z_0_11_2)))
(assert
 (= z_0_11_2 (and z_2_11_2 z_0_11_3)))
(assert
 (= z_0_11_3 (and z_2_11_3 z_0_11_4)))
(assert
 (= z_0_11_4 (and z_2_11_4 z_0_11_5)))
(assert
 (= z_0_11_5 (and z_2_11_5 z_0_11_6)))
(assert
 (= z_0_11_6 (and z_2_11_6 z_0_11_7)))
(assert
 (= z_0_11_7 (and z_2_11_7 z_0_11_8)))
(assert
 (= z_0_11_8 (and z_2_11_8 z_0_11_9)))
(assert
 (= z_0_11_9 (and z_2_11_9 z_0_11_10)))
(assert
 (= z_0_11_10 (and z_2_11_10 z_0_11_11)))
(assert
 (= z_0_11_11 (and z_2_11_6 z_2_11_7 z_2_11_8 z_2_11_9 z_2_11_10 z_2_11_11)))
(assert
 (= z_0_12_0 (and z_2_12_0 z_0_12_1)))
(assert
 (= z_0_12_1 (and z_2_12_1 z_0_12_2)))
(assert
 (= z_0_12_2 (and z_2_12_2 z_0_12_3)))
(assert
 (= z_0_12_3 (and z_2_12_3 z_0_12_4)))
(assert
 (= z_0_12_4 (and z_2_12_4 z_0_12_5)))
(assert
 (= z_0_12_5 (and z_2_12_5 z_0_12_6)))
(assert
 (= z_0_12_6 (and z_2_12_6 z_0_12_7)))
(assert
 (= z_0_12_7 (and z_2_12_7 z_0_12_8)))
(assert
 (= z_0_12_8 (and z_2_12_8 z_0_12_9)))
(assert
 (= z_0_12_9 (and z_2_12_9 z_0_12_10)))
(assert
 (= z_0_12_10 (and z_2_12_10 z_0_12_11)))
(assert
 (let (($x3208 (and z_2_12_4 z_2_12_5 z_2_12_6 z_2_12_7 z_2_12_8 z_2_12_9 z_2_12_10 z_2_12_11)))
 (= z_0_12_11 $x3208)))
(assert
 (= z_0_13_0 (and z_2_13_0 z_0_13_1)))
(assert
 (= z_0_13_1 (and z_2_13_1 z_0_13_2)))
(assert
 (= z_0_13_2 (and z_2_13_2 z_0_13_3)))
(assert
 (= z_0_13_3 (and z_2_13_3 z_0_13_4)))
(assert
 (= z_0_13_4 (and z_2_13_4 z_0_13_5)))
(assert
 (= z_0_13_5 (and z_2_13_5 z_0_13_6)))
(assert
 (= z_0_13_6 (and z_2_13_6 z_0_13_7)))
(assert
 (= z_0_13_7 (and z_2_13_7 z_0_13_8)))
(assert
 (= z_0_13_8 (and z_2_13_8 z_0_13_9)))
(assert
 (= z_0_13_9 (and z_2_13_9 z_0_13_10)))
(assert
 (= z_0_13_10 (and z_2_13_10 z_0_13_11)))
(assert
 (= z_0_13_11 (and z_2_13_11 z_0_13_12)))
(assert
 (let (($x3247 (and z_2_13_5 z_2_13_6 z_2_13_7 z_2_13_8 z_2_13_9 z_2_13_10 z_2_13_11 z_2_13_12)))
 (= z_0_13_12 $x3247)))
(assert
 (= z_0_14_0 (and z_2_14_0 z_0_14_1)))
(assert
 (= z_0_14_1 (and z_2_14_1 z_0_14_2)))
(assert
 (= z_0_14_2 (and z_2_14_2 z_0_14_3)))
(assert
 (= z_0_14_3 (and z_2_14_3 z_0_14_4)))
(assert
 (= z_0_14_4 (and z_2_14_4 z_0_14_5)))
(assert
 (= z_0_14_5 (and z_2_14_5 z_0_14_6)))
(assert
 (= z_0_14_6 (and z_2_14_6 z_0_14_7)))
(assert
 (= z_0_14_7 (and z_2_14_7 z_0_14_8)))
(assert
 (= z_0_14_8 (and z_2_14_8 z_0_14_9)))
(assert
 (= z_0_14_9 (and z_2_14_9 z_0_14_10)))
(assert
 (= z_0_14_10 (and z_2_14_10 z_0_14_11)))
(assert
 (= z_0_14_11 (and z_2_14_11 z_0_14_12)))
(assert
 (= z_0_14_12 (and z_2_14_12 z_0_14_13)))
(assert
 (let (($x3289 (and z_2_14_6 z_2_14_7 z_2_14_8 z_2_14_9 z_2_14_10 z_2_14_11 z_2_14_12 z_2_14_13)))
 (= z_0_14_13 $x3289)))
(assert
 (= z_0_15_0 (and z_2_15_0 z_0_15_1)))
(assert
 (= z_0_15_1 (and z_2_15_1 z_0_15_2)))
(assert
 (= z_0_15_2 (and z_2_15_2 z_0_15_3)))
(assert
 (= z_0_15_3 (and z_2_15_3 z_0_15_4)))
(assert
 (= z_0_15_4 (and z_2_15_4 z_0_15_5)))
(assert
 (= z_0_15_5 (and z_2_15_5 z_0_15_6)))
(assert
 (= z_0_15_6 (and z_2_15_6 z_0_15_7)))
(assert
 (= z_0_15_7 (and z_2_15_7 z_0_15_8)))
(assert
 (= z_0_15_8 (and z_2_15_8 z_0_15_9)))
(assert
 (= z_0_15_9 (and z_2_15_9 z_0_15_10)))
(assert
 (= z_0_15_10 (and z_2_15_10 z_0_15_11)))
(assert
 (= z_0_15_11 (and z_2_15_11 z_0_15_12)))
(assert
 (= z_0_15_12 (and z_2_15_12 z_0_15_13)))
(assert
 (let (($x3331 (and z_2_15_6 z_2_15_7 z_2_15_8 z_2_15_9 z_2_15_10 z_2_15_11 z_2_15_12 z_2_15_13)))
 (= z_0_15_13 $x3331)))
(assert
 (= z_0_16_0 (and z_2_16_0 z_0_16_1)))
(assert
 (= z_0_16_1 (and z_2_16_1 z_0_16_2)))
(assert
 (= z_0_16_2 (and z_2_16_2 z_0_16_3)))
(assert
 (= z_0_16_3 (and z_2_16_3 z_0_16_4)))
(assert
 (= z_0_16_4 (and z_2_16_4 z_0_16_5)))
(assert
 (= z_0_16_5 (and z_2_16_5 z_0_16_6)))
(assert
 (= z_0_16_6 (and z_2_16_6 z_0_16_7)))
(assert
 (= z_0_16_7 (and z_2_16_7 z_0_16_8)))
(assert
 (= z_0_16_8 (and z_2_16_8 z_0_16_9)))
(assert
 (= z_0_16_9 (and z_2_16_9 z_0_16_10)))
(assert
 (= z_0_16_10 (and z_2_16_10 z_0_16_11)))
(assert
 (= z_0_16_11 (and z_2_16_11 z_0_16_12)))
(assert
 (let (($x3370 (and z_2_16_7 z_2_16_8 z_2_16_9 z_2_16_10 z_2_16_11 z_2_16_12)))
 (= z_0_16_12 $x3370)))
(assert
 (= z_0_17_0 (and z_2_17_0 z_0_17_1)))
(assert
 (= z_0_17_1 (and z_2_17_1 z_0_17_2)))
(assert
 (= z_0_17_2 (and z_2_17_2 z_0_17_3)))
(assert
 (= z_0_17_3 (and z_2_17_3 z_0_17_4)))
(assert
 (= z_0_17_4 (and z_2_17_4 z_0_17_5)))
(assert
 (= z_0_17_5 (and z_2_17_5 z_0_17_6)))
(assert
 (= z_0_17_6 (and z_2_17_6 z_0_17_7)))
(assert
 (= z_0_17_7 (and z_2_17_7 z_0_17_8)))
(assert
 (= z_0_17_8 (and z_2_17_8 z_0_17_9)))
(assert
 (= z_0_17_9 (and z_2_17_9 z_0_17_10)))
(assert
 (= z_0_17_10 (and z_2_17_10 z_0_17_11)))
(assert
 (= z_0_17_11 (and z_2_17_11 z_0_17_12)))
(assert
 (= z_0_17_12 (and z_2_17_12 z_0_17_13)))
(assert
 (= z_0_17_13 (and z_2_17_13 z_0_17_14)))
(assert
 (let (($x3415 (and z_2_17_7 z_2_17_8 z_2_17_9 z_2_17_10 z_2_17_11 z_2_17_12 z_2_17_13 z_2_17_14)))
 (= z_0_17_14 $x3415)))
(assert
 (= z_0_18_0 (and z_2_18_0 z_0_18_1)))
(assert
 (= z_0_18_1 (and z_2_18_1 z_0_18_2)))
(assert
 (= z_0_18_2 (and z_2_18_2 z_0_18_3)))
(assert
 (= z_0_18_3 (and z_2_18_3 z_0_18_4)))
(assert
 (= z_0_18_4 (and z_2_18_4 z_0_18_5)))
(assert
 (= z_0_18_5 (and z_2_18_5 z_0_18_6)))
(assert
 (= z_0_18_6 (and z_2_18_6 z_0_18_7)))
(assert
 (= z_0_18_7 (and z_2_18_7 z_0_18_8)))
(assert
 (= z_0_18_8 (and z_2_18_8 z_0_18_9)))
(assert
 (= z_0_18_9 (and z_2_18_9 z_0_18_10)))
(assert
 (= z_0_18_10 (and z_2_18_10 z_0_18_11)))
(assert
 (= z_0_18_11 (and z_2_18_6 z_2_18_7 z_2_18_8 z_2_18_9 z_2_18_10 z_2_18_11)))
(assert
 (= z_0_19_0 (and z_2_19_0 z_0_19_1)))
(assert
 (= z_0_19_1 (and z_2_19_1 z_0_19_2)))
(assert
 (= z_0_19_2 (and z_2_19_2 z_0_19_3)))
(assert
 (= z_0_19_3 (and z_2_19_3 z_0_19_4)))
(assert
 (= z_0_19_4 (and z_2_19_4 z_0_19_5)))
(assert
 (= z_0_19_5 (and z_2_19_5 z_0_19_6)))
(assert
 (= z_0_19_6 (and z_2_19_6 z_0_19_7)))
(assert
 (= z_0_19_7 (and z_2_19_7 z_0_19_8)))
(assert
 (= z_0_19_8 (and z_2_19_8 z_0_19_9)))
(assert
 (= z_0_19_9 (and z_2_19_9 z_0_19_10)))
(assert
 (= z_0_19_10 (and z_2_19_10 z_0_19_11)))
(assert
 (= z_0_19_11 (and z_2_19_11 z_0_19_12)))
(assert
 (= z_0_19_12 (and z_2_19_12 z_0_19_13)))
(assert
 (= z_0_19_13 (and z_2_19_13 z_0_19_14)))
(assert
 (let (($x3496 (and z_2_19_7 z_2_19_8 z_2_19_9 z_2_19_10 z_2_19_11 z_2_19_12 z_2_19_13 z_2_19_14)))
 (= z_0_19_14 $x3496)))
(assert
 (and true true))
(assert
 (=> x_2_p z_2_0_0))
(assert
 (=> x_2_p z_2_1_0))
(assert
 (=> x_2_p z_2_2_0))
(assert
 (=> x_2_p z_2_3_0))
(assert
 (=> x_2_p z_2_4_0))
(assert
 (=> x_2_p z_2_5_0))
(assert
 (=> x_2_p z_2_6_0))
(assert
 (=> x_2_p z_2_7_0))
(assert
 (=> x_2_p z_2_8_0))
(assert
 (=> x_2_p z_2_9_0))
(assert
 (=> x_2_p z_2_10_0))
(assert
 (=> x_2_p z_2_10_1))
(assert
 (=> x_2_p z_2_10_2))
(assert
 (let (($x3545 (not z_2_10_3)))
 (=> x_2_p $x3545)))
(assert
 (=> x_2_p z_2_10_4))
(assert
 (let (($x3550 (not z_2_10_5)))
 (=> x_2_p $x3550)))
(assert
 (=> x_2_p z_2_10_6))
(assert
 (=> x_2_p z_2_10_7))
(assert
 (let (($x3557 (not z_2_10_8)))
 (=> x_2_p $x3557)))
(assert
 (let (($x3560 (not z_2_10_9)))
 (=> x_2_p $x3560)))
(assert
 (=> x_2_p z_2_10_10))
(assert
 (let (($x3565 (not z_2_10_11)))
 (=> x_2_p $x3565)))
(assert
 (let (($x3568 (not z_2_11_0)))
 (=> x_2_p $x3568)))
(assert
 (=> x_2_p z_2_11_1))
(assert
 (=> x_2_p z_2_11_2))
(assert
 (let (($x3575 (not z_2_11_3)))
 (=> x_2_p $x3575)))
(assert
 (=> x_2_p z_2_11_4))
(assert
 (=> x_2_p z_2_11_5))
(assert
 (=> x_2_p z_2_11_6))
(assert
 (let (($x3584 (not z_2_11_7)))
 (=> x_2_p $x3584)))
(assert
 (let (($x3587 (not z_2_11_8)))
 (=> x_2_p $x3587)))
(assert
 (let (($x3590 (not z_2_11_9)))
 (=> x_2_p $x3590)))
(assert
 (=> x_2_p z_2_11_10))
(assert
 (let (($x3595 (not z_2_11_11)))
 (=> x_2_p $x3595)))
(assert
 (=> x_2_p z_2_12_0))
(assert
 (let (($x3600 (not z_2_12_1)))
 (=> x_2_p $x3600)))
(assert
 (let (($x3603 (not z_2_12_2)))
 (=> x_2_p $x3603)))
(assert
 (=> x_2_p z_2_12_3))
(assert
 (=> x_2_p z_2_12_4))
(assert
 (let (($x3610 (not z_2_12_5)))
 (=> x_2_p $x3610)))
(assert
 (let (($x3613 (not z_2_12_6)))
 (=> x_2_p $x3613)))
(assert
 (let (($x3616 (not z_2_12_7)))
 (=> x_2_p $x3616)))
(assert
 (=> x_2_p z_2_12_8))
(assert
 (let (($x3621 (not z_2_12_9)))
 (=> x_2_p $x3621)))
(assert
 (=> x_2_p z_2_12_10))
(assert
 (let (($x3626 (not z_2_12_11)))
 (=> x_2_p $x3626)))
(assert
 (let (($x3629 (not z_2_13_0)))
 (=> x_2_p $x3629)))
(assert
 (let (($x3632 (not z_2_13_1)))
 (=> x_2_p $x3632)))
(assert
 (let (($x3635 (not z_2_13_2)))
 (=> x_2_p $x3635)))
(assert
 (let (($x3638 (not z_2_13_3)))
 (=> x_2_p $x3638)))
(assert
 (let (($x3641 (not z_2_13_4)))
 (=> x_2_p $x3641)))
(assert
 (=> x_2_p z_2_13_5))
(assert
 (=> x_2_p z_2_13_6))
(assert
 (=> x_2_p z_2_13_7))
(assert
 (let (($x3650 (not z_2_13_8)))
 (=> x_2_p $x3650)))
(assert
 (=> x_2_p z_2_13_9))
(assert
 (let (($x3655 (not z_2_13_10)))
 (=> x_2_p $x3655)))
(assert
 (=> x_2_p z_2_13_11))
(assert
 (=> x_2_p z_2_13_12))
(assert
 (let (($x3662 (not z_2_14_0)))
 (=> x_2_p $x3662)))
(assert
 (let (($x3665 (not z_2_14_1)))
 (=> x_2_p $x3665)))
(assert
 (=> x_2_p z_2_14_2))
(assert
 (=> x_2_p z_2_14_3))
(assert
 (=> x_2_p z_2_14_4))
(assert
 (=> x_2_p z_2_14_5))
(assert
 (let (($x3676 (not z_2_14_6)))
 (=> x_2_p $x3676)))
(assert
 (=> x_2_p z_2_14_7))
(assert
 (let (($x3681 (not z_2_14_8)))
 (=> x_2_p $x3681)))
(assert
 (=> x_2_p z_2_14_9))
(assert
 (let (($x3686 (not z_2_14_10)))
 (=> x_2_p $x3686)))
(assert
 (=> x_2_p z_2_14_11))
(assert
 (let (($x3691 (not z_2_14_12)))
 (=> x_2_p $x3691)))
(assert
 (let (($x3694 (not z_2_14_13)))
 (=> x_2_p $x3694)))
(assert
 (=> x_2_p z_2_15_0))
(assert
 (=> x_2_p z_2_15_1))
(assert
 (=> x_2_p z_2_15_2))
(assert
 (=> x_2_p z_2_15_3))
(assert
 (let (($x3705 (not z_2_15_4)))
 (=> x_2_p $x3705)))
(assert
 (let (($x3708 (not z_2_15_5)))
 (=> x_2_p $x3708)))
(assert
 (let (($x3711 (not z_2_15_6)))
 (=> x_2_p $x3711)))
(assert
 (let (($x3714 (not z_2_15_7)))
 (=> x_2_p $x3714)))
(assert
 (=> x_2_p z_2_15_8))
(assert
 (let (($x3719 (not z_2_15_9)))
 (=> x_2_p $x3719)))
(assert
 (let (($x3722 (not z_2_15_10)))
 (=> x_2_p $x3722)))
(assert
 (=> x_2_p z_2_15_11))
(assert
 (let (($x3727 (not z_2_15_12)))
 (=> x_2_p $x3727)))
(assert
 (=> x_2_p z_2_15_13))
(assert
 (=> x_2_p z_2_16_0))
(assert
 (let (($x3734 (not z_2_16_1)))
 (=> x_2_p $x3734)))
(assert
 (=> x_2_p z_2_16_2))
(assert
 (=> x_2_p z_2_16_3))
(assert
 (=> x_2_p z_2_16_4))
(assert
 (=> x_2_p z_2_16_5))
(assert
 (=> x_2_p z_2_16_6))
(assert
 (let (($x3747 (not z_2_16_7)))
 (=> x_2_p $x3747)))
(assert
 (=> x_2_p z_2_16_8))
(assert
 (=> x_2_p z_2_16_9))
(assert
 (=> x_2_p z_2_16_10))
(assert
 (=> x_2_p z_2_16_11))
(assert
 (let (($x3758 (not z_2_16_12)))
 (=> x_2_p $x3758)))
(assert
 (let (($x3761 (not z_2_17_0)))
 (=> x_2_p $x3761)))
(assert
 (let (($x3764 (not z_2_17_1)))
 (=> x_2_p $x3764)))
(assert
 (=> x_2_p z_2_17_2))
(assert
 (=> x_2_p z_2_17_3))
(assert
 (let (($x3771 (not z_2_17_4)))
 (=> x_2_p $x3771)))
(assert
 (=> x_2_p z_2_17_5))
(assert
 (let (($x3776 (not z_2_17_6)))
 (=> x_2_p $x3776)))
(assert
 (let (($x3779 (not z_2_17_7)))
 (=> x_2_p $x3779)))
(assert
 (=> x_2_p z_2_17_8))
(assert
 (=> x_2_p z_2_17_9))
(assert
 (let (($x3786 (not z_2_17_10)))
 (=> x_2_p $x3786)))
(assert
 (let (($x3789 (not z_2_17_11)))
 (=> x_2_p $x3789)))
(assert
 (let (($x3792 (not z_2_17_12)))
 (=> x_2_p $x3792)))
(assert
 (let (($x3795 (not z_2_17_13)))
 (=> x_2_p $x3795)))
(assert
 (=> x_2_p z_2_17_14))
(assert
 (let (($x3800 (not z_2_18_0)))
 (=> x_2_p $x3800)))
(assert
 (let (($x3803 (not z_2_18_1)))
 (=> x_2_p $x3803)))
(assert
 (=> x_2_p z_2_18_2))
(assert
 (=> x_2_p z_2_18_3))
(assert
 (let (($x3810 (not z_2_18_4)))
 (=> x_2_p $x3810)))
(assert
 (let (($x3813 (not z_2_18_5)))
 (=> x_2_p $x3813)))
(assert
 (=> x_2_p z_2_18_6))
(assert
 (=> x_2_p z_2_18_7))
(assert
 (let (($x3820 (not z_2_18_8)))
 (=> x_2_p $x3820)))
(assert
 (let (($x3823 (not z_2_18_9)))
 (=> x_2_p $x3823)))
(assert
 (=> x_2_p z_2_18_10))
(assert
 (=> x_2_p z_2_18_11))
(assert
 (let (($x3830 (not z_2_19_0)))
 (=> x_2_p $x3830)))
(assert
 (=> x_2_p z_2_19_1))
(assert
 (let (($x3835 (not z_2_19_2)))
 (=> x_2_p $x3835)))
(assert
 (let (($x3838 (not z_2_19_3)))
 (=> x_2_p $x3838)))
(assert
 (=> x_2_p z_2_19_4))
(assert
 (let (($x3843 (not z_2_19_5)))
 (=> x_2_p $x3843)))
(assert
 (=> x_2_p z_2_19_6))
(assert
 (let (($x3848 (not z_2_19_7)))
 (=> x_2_p $x3848)))
(assert
 (=> x_2_p z_2_19_8))
(assert
 (let (($x3853 (not z_2_19_9)))
 (=> x_2_p $x3853)))
(assert
 (=> x_2_p z_2_19_10))
(assert
 (let (($x3858 (not z_2_19_11)))
 (=> x_2_p $x3858)))
(assert
 (=> x_2_p z_2_19_12))
(assert
 (=> x_2_p z_2_19_13))
(assert
 (let (($x3865 (not z_2_19_14)))
 (=> x_2_p $x3865)))
(assert
 (or x_2_p))
(assert
 (let (($x3516 (not x_2_->)))
 (let (($x3514 (not x_2_U)))
 (let (($x3512 (not x_2_v)))
 (let (($x3510 (not x_2_&)))
 (let (($x3508 (not x_2_X)))
 (let (($x3506 (not x_2_!)))
 (let (($x3504 (not x_2_F)))
 (let (($x3502 (not x_2_G)))
 (and $x3502 $x3504 $x3506 $x3508 $x3510 $x3512 $x3514 $x3516))))))))))
(check-sat)

